g3 0 1 0	# problem ex8_6_2
 30 0 1 0 0	# vars, constraints, objectives, ranges, eqns
 0 1	# nonlinear constraints, objectives
 0 0	# network constraints: nonlinear, linear
 0 30 0	# nonlinear vars in constraints, objectives, both
 0 0 0 1	# linear network variables; functions; arith, flags
 0 0 0 0 0	# discrete variables: binary, integer, nonlinear (b,c,o)
 0 30	# nonzeros in Jacobian, gradients
 3 3	# max name lengths: constraints, variables
 0 0 0 0 0	# common exprs: b,c,o,c1,o1
b
4 0
0 -5 5
0 -5 5
0 -5 5
0 -5 5
0 -5 5
0 -5 5
0 -5 5
0 -5 5
0 -5 5
4 0
4 0
0 -5 5
0 -5 5
0 -5 5
0 -5 5
0 -5 5
0 -5 5
0 -5 5
0 -5 5
4 0
4 0
4 0
0 -5 5
0 -5 5
0 -5 5
0 -5 5
0 -5 5
0 -5 5
0 -5 5
x24
1 3.43266708
2 .50375356
3 -1.98862096
4 -2.07787883
5 -2.75947133
6 -1.50169496
7 3.56270347
8 -4.32886277
9 2.10668999999974e-3
12 4.91133039
13 2.62250467
14 -3.69307517
15 1.39718759
16 -3.40482136
17 -2.49919467
18 1.68928609
19 -.64643619
23 -3.49898212
24 .8911365
25 3.30892812
26 -2.69184262
27 1.6573446
28 2.75857606
29 -1.96341523
O0 0
o54
46
o5
o1
n1
o44
o0
o2
n-3
o5
o54
3
o5
o1
v0
v1
n2
o5
o1
v10
v11
n2
o5
o1
v20
v21
n2
n.5
n3
n2
o5
o1
n1
o44
o0
o2
n-3
o5
o54
3
o5
o1
v0
v2
n2
o5
o1
v10
v12
n2
o5
o1
v20
v22
n2
n.5
n3
n2
o5
o1
n1
o44
o0
o2
n-3
o5
o54
3
o5
o1
v0
v3
n2
o5
o1
v10
v13
n2
o5
o1
v20
v23
n2
n.5
n3
n2
o5
o1
n1
o44
o0
o2
n-3
o5
o54
3
o5
o1
v0
v4
n2
o5
o1
v10
v14
n2
o5
o1
v20
v24
n2
n.5
n3
n2
o5
o1
n1
o44
o0
o2
n-3
o5
o54
3
o5
o1
v0
v5
n2
o5
o1
v10
v15
n2
o5
o1
v20
v25
n2
n.5
n3
n2
o5
o1
n1
o44
o0
o2
n-3
o5
o54
3
o5
o1
v0
v6
n2
o5
o1
v10
v16
n2
o5
o1
v20
v26
n2
n.5
n3
n2
o5
o1
n1
o44
o0
o2
n-3
o5
o54
3
o5
o1
v0
v7
n2
o5
o1
v10
v17
n2
o5
o1
v20
v27
n2
n.5
n3
n2
o5
o1
n1
o44
o0
o2
n-3
o5
o54
3
o5
o1
v0
v8
n2
o5
o1
v10
v18
n2
o5
o1
v20
v28
n2
n.5
n3
n2
o5
o1
n1
o44
o0
o2
n-3
o5
o54
3
o5
o1
v0
v9
n2
o5
o1
v10
v19
n2
o5
o1
v20
v29
n2
n.5
n3
n2
o5
o1
n1
o44
o0
o2
n-3
o5
o54
3
o5
o1
v1
v2
n2
o5
o1
v11
v12
n2
o5
o1
v21
v22
n2
n.5
n3
n2
o5
o1
n1
o44
o0
o2
n-3
o5
o54
3
o5
o1
v1
v3
n2
o5
o1
v11
v13
n2
o5
o1
v21
v23
n2
n.5
n3
n2
o5
o1
n1
o44
o0
o2
n-3
o5
o54
3
o5
o1
v1
v4
n2
o5
o1
v11
v14
n2
o5
o1
v21
v24
n2
n.5
n3
n2
o5
o1
n1
o44
o0
o2
n-3
o5
o54
3
o5
o1
v1
v5
n2
o5
o1
v11
v15
n2
o5
o1
v21
v25
n2
n.5
n3
n2
o5
o1
n1
o44
o0
o2
n-3
o5
o54
3
o5
o1
v1
v6
n2
o5
o1
v11
v16
n2
o5
o1
v21
v26
n2
n.5
n3
n2
o5
o1
n1
o44
o0
o2
n-3
o5
o54
3
o5
o1
v1
v7
n2
o5
o1
v11
v17
n2
o5
o1
v21
v27
n2
n.5
n3
n2
o5
o1
n1
o44
o0
o2
n-3
o5
o54
3
o5
o1
v1
v8
n2
o5
o1
v11
v18
n2
o5
o1
v21
v28
n2
n.5
n3
n2
o5
o1
n1
o44
o0
o2
n-3
o5
o54
3
o5
o1
v1
v9
n2
o5
o1
v11
v19
n2
o5
o1
v21
v29
n2
n.5
n3
n2
o5
o1
n1
o44
o0
o2
n-3
o5
o54
3
o5
o1
v2
v3
n2
o5
o1
v12
v13
n2
o5
o1
v22
v23
n2
n.5
n3
n2
o5
o1
n1
o44
o0
o2
n-3
o5
o54
3
o5
o1
v2
v4
n2
o5
o1
v12
v14
n2
o5
o1
v22
v24
n2
n.5
n3
n2
o5
o1
n1
o44
o0
o2
n-3
o5
o54
3
o5
o1
v2
v5
n2
o5
o1
v12
v15
n2
o5
o1
v22
v25
n2
n.5
n3
n2
o5
o1
n1
o44
o0
o2
n-3
o5
o54
3
o5
o1
v2
v6
n2
o5
o1
v12
v16
n2
o5
o1
v22
v26
n2
n.5
n3
n2
o5
o1
n1
o44
o0
o2
n-3
o5
o54
3
o5
o1
v2
v7
n2
o5
o1
v12
v17
n2
o5
o1
v22
v27
n2
n.5
n3
n2
o5
o1
n1
o44
o0
o2
n-3
o5
o54
3
o5
o1
v2
v8
n2
o5
o1
v12
v18
n2
o5
o1
v22
v28
n2
n.5
n3
n2
o5
o1
n1
o44
o0
o2
n-3
o5
o54
3
o5
o1
v2
v9
n2
o5
o1
v12
v19
n2
o5
o1
v22
v29
n2
n.5
n3
n2
o5
o1
n1
o44
o0
o2
n-3
o5
o54
3
o5
o1
v3
v4
n2
o5
o1
v13
v14
n2
o5
o1
v23
v24
n2
n.5
n3
n2
o5
o1
n1
o44
o0
o2
n-3
o5
o54
3
o5
o1
v3
v5
n2
o5
o1
v13
v15
n2
o5
o1
v23
v25
n2
n.5
n3
n2
o5
o1
n1
o44
o0
o2
n-3
o5
o54
3
o5
o1
v3
v6
n2
o5
o1
v13
v16
n2
o5
o1
v23
v26
n2
n.5
n3
n2
o5
o1
n1
o44
o0
o2
n-3
o5
o54
3
o5
o1
v3
v7
n2
o5
o1
v13
v17
n2
o5
o1
v23
v27
n2
n.5
n3
n2
o5
o1
n1
o44
o0
o2
n-3
o5
o54
3
o5
o1
v3
v8
n2
o5
o1
v13
v18
n2
o5
o1
v23
v28
n2
n.5
n3
n2
o5
o1
n1
o44
o0
o2
n-3
o5
o54
3
o5
o1
v3
v9
n2
o5
o1
v13
v19
n2
o5
o1
v23
v29
n2
n.5
n3
n2
o5
o1
n1
o44
o0
o2
n-3
o5
o54
3
o5
o1
v4
v5
n2
o5
o1
v14
v15
n2
o5
o1
v24
v25
n2
n.5
n3
n2
o5
o1
n1
o44
o0
o2
n-3
o5
o54
3
o5
o1
v4
v6
n2
o5
o1
v14
v16
n2
o5
o1
v24
v26
n2
n.5
n3
n2
o5
o1
n1
o44
o0
o2
n-3
o5
o54
3
o5
o1
v4
v7
n2
o5
o1
v14
v17
n2
o5
o1
v24
v27
n2
n.5
n3
n2
o5
o1
n1
o44
o0
o2
n-3
o5
o54
3
o5
o1
v4
v8
n2
o5
o1
v14
v18
n2
o5
o1
v24
v28
n2
n.5
n3
n2
o5
o1
n1
o44
o0
o2
n-3
o5
o54
3
o5
o1
v4
v9
n2
o5
o1
v14
v19
n2
o5
o1
v24
v29
n2
n.5
n3
n2
o5
o1
n1
o44
o0
o2
n-3
o5
o54
3
o5
o1
v5
v6
n2
o5
o1
v15
v16
n2
o5
o1
v25
v26
n2
n.5
n3
n2
o5
o1
n1
o44
o0
o2
n-3
o5
o54
3
o5
o1
v5
v7
n2
o5
o1
v15
v17
n2
o5
o1
v25
v27
n2
n.5
n3
n2
o5
o1
n1
o44
o0
o2
n-3
o5
o54
3
o5
o1
v5
v8
n2
o5
o1
v15
v18
n2
o5
o1
v25
v28
n2
n.5
n3
n2
o5
o1
n1
o44
o0
o2
n-3
o5
o54
3
o5
o1
v5
v9
n2
o5
o1
v15
v19
n2
o5
o1
v25
v29
n2
n.5
n3
n2
o5
o1
n1
o44
o0
o2
n-3
o5
o54
3
o5
o1
v6
v7
n2
o5
o1
v16
v17
n2
o5
o1
v26
v27
n2
n.5
n3
n2
o5
o1
n1
o44
o0
o2
n-3
o5
o54
3
o5
o1
v6
v8
n2
o5
o1
v16
v18
n2
o5
o1
v26
v28
n2
n.5
n3
n2
o5
o1
n1
o44
o0
o2
n-3
o5
o54
3
o5
o1
v6
v9
n2
o5
o1
v16
v19
n2
o5
o1
v26
v29
n2
n.5
n3
n2
o5
o1
n1
o44
o0
o2
n-3
o5
o54
3
o5
o1
v7
v8
n2
o5
o1
v17
v18
n2
o5
o1
v27
v28
n2
n.5
n3
n2
o5
o1
n1
o44
o0
o2
n-3
o5
o54
3
o5
o1
v7
v9
n2
o5
o1
v17
v19
n2
o5
o1
v27
v29
n2
n.5
n3
n2
o5
o1
n1
o44
o0
o2
n-3
o5
o54
3
o5
o1
v8
v9
n2
o5
o1
v18
v19
n2
o5
o1
v28
v29
n2
n.5
n3
n2
n-45
k29
0
0
0
0
0
0
0
0
0
0
0
0
0
0
0
0
0
0
0
0
0
0
0
0
0
0
0
0
0
G0 30
0 0
1 0
2 0
3 0
4 0
5 0
6 0
7 0
8 0
9 0
10 0
11 0
12 0
13 0
14 0
15 0
16 0
17 0
18 0
19 0
20 0
21 0
22 0
23 0
24 0
25 0
26 0
27 0
28 0
29 0
